c generated by ere2max.py
c max 6 7 8 9 10 0
c ind 1 2 3 4 5 0
p cnf 10 50
-1 -3 -7 9 0
2 4 -7 -8 0
1 -8 9 -10 0
6 -7 -8 10 0
3 5 6 -10 0
1 3 6 7 0
-1 2 -6 -8 0
2 -3 -4 -8 0
3 5 7 8 0
-2 4 -8 -9 0
-2 3 -9 -10 0
1 -2 6 -7 0
-1 -2 -8 -10 0
-2 3 -7 10 0
-1 -6 7 8 0
-3 5 8 -10 0
-2 5 6 -9 0
2 5 -9 10 0
4 -5 6 -8 0
3 -4 -6 -10 0
2 7 8 9 0
2 3 -6 10 0
-1 -2 4 9 0
2 5 -7 8 0
-2 4 -7 -8 0
-3 4 -7 -10 0
-1 3 -8 -9 0
-2 -5 -7 -10 0
1 2 3 -9 0
3 -6 -7 -10 0
1 -3 7 8 0
1 -3 -6 7 0
1 5 9 -10 0
1 4 8 9 0
-2 -5 7 10 0
1 3 -4 -5 0
-1 -2 4 10 0
-1 3 -5 9 0
-1 6 7 -8 0
3 5 -8 9 0
3 -4 -5 -8 0
-2 3 -5 -7 0
2 -4 -5 10 0
-5 -6 -7 -10 0
-1 4 7 10 0
-3 4 -6 7 0
5 6 -7 10 0
-6 7 8 10 0
-2 -5 -7 -8 0
1 -4 -6 -8 0
